(set-logic ALL)
(set-option :produce-models true)
(declare-sort BoundSet 0)
(declare-sort UnboundSet 0)
(set-option :finite-model-find true)
(declare-fun KnittedSweater (BoundSet BoundSet) Bool)
(declare-fun IsWornInPhoto (BoundSet BoundSet) Bool)
(assert (not (=> (exists ((a BoundSet)) (exists ((b BoundSet)) (KnittedSweater a b))) (exists ((c BoundSet)) (exists ((d BoundSet)) (IsWornInPhoto c d))))))
(check-sat)
(get-model)